181
300
240	5
239	6
238	9
237	1
236	4
235	6
234	6
233	10
232	4
231	7
230	6
229	4
228	5
227	1
226	3
225	10
224	6
223	9
222	7
221	5
220	6
219	4
218	3
217	4
216	3
215	4
214	5
213	5
212	3
211	2
210	8
209	4
208	7
207	5
206	2
205	9
204	6
203	7
202	7
201	2
200	9
199	5
198	8
197	8
196	7
195	5
194	10
193	5
192	7
191	5
190	7
189	7
188	6
187	5
186	7
185	9
184	4
183	6
182	6
181	10
180	8
179	6
178	4
177	3
176	7
175	2
174	5
173	3
172	7
171	7
170	5
169	5
168	3
167	7
166	5
165	5
164	5
163	5
162	8
161	3
160	3
159	4
158	5
157	3
156	5
155	3
154	5
153	4
152	6
151	4
150	8
149	4
148	7
147	4
146	5
145	4
144	6
143	8
142	6
141	8
140	6
139	7
138	5
137	6
136	6
135	12
134	6
133	3
132	3
131	6
130	6
129	3
128	6
127	3
126	10
125	3
124	5
123	7
122	1
121	4
120	8
119	3
118	3
117	8
116	7
115	7
114	6
113	4
112	12
111	5
110	9
109	6
108	3
107	3
106	6
105	8
104	11
103	7
102	4
101	3
100	1
99	4
98	5
97	10
96	6
95	11
94	3
93	5
92	6
91	5
90	13
89	7
88	3
87	6
86	6
85	3
84	3
83	3
82	12
81	8
80	3
79	2
78	7
77	1
76	7
75	3
74	7
73	6
72	4
71	7
70	4
69	6
68	5
67	6
66	8
65	4
64	2
63	4
62	4
61	4
60	4
